db/data/1391828000163251303531244209872567222321.z3.out
-------------------
2500.155304222
